p cnf 497 1372
-1 5 0 
1 282 0 
-8 -9 0 
-97 -98 0 
-99 -100 0 
-101 -102 0 
-103 -104 107 0 
-103 104 0 
-104 -105 0 
-105 106 0 
-106 -7 -52 0 
-106 7 52 0 
-107 -108 111 0 
-107 108 0 
-108 -109 0 
-109 110 0 
-110 -12 -57 0 
-110 12 57 0 
-111 -61 112 0 
-111 61 0 
-112 -113 116 0 
-112 113 0 
-113 -114 0 
-114 115 0 
-115 -22 -67 0 
-115 22 67 0 
-116 -117 120 0 
-116 117 0 
-117 -118 0 
-118 119 0 
-119 -27 -72 0 
-119 27 72 0 
-120 -121 124 0 
-120 121 0 
-121 -122 0 
-122 123 0 
-123 -32 -77 0 
-123 32 77 0 
-124 -125 85 0 
-124 125 0 
-125 -126 0 
-126 127 0 
-10 -11 15 0 
-10 11 0 
-127 -37 -82 0 
-127 37 82 0 
-128 -104 129 0 
-128 104 252 0 
-129 -130 134 0 
-129 130 161 0 
-130 101 0 
-130 131 0 
-131 99 0 
-131 132 0 
-132 97 0 
-132 133 0 
-133 96 0 
-134 -108 135 0 
-134 108 0 
-135 -136 140 0 
-135 136 149 0 
-136 137 0 
-11 -12 0 
-137 -138 0 
-138 -139 0 
-140 -141 142 0 
-140 141 0 
-141 -62 0 
-142 -113 143 0 
-142 113 0 
-143 -117 144 0 
-143 117 0 
-144 -145 146 0 
-144 145 0 
-145 77 0 
-146 -125 147 0 
-146 125 0 
-12 -13 0 
-147 148 0 
-148 87 0 
-149 -150 153 0 
-149 150 0 
-150 -151 0 
-151 152 0 
-152 -17 -62 0 
-152 17 62 0 
-153 -113 154 0 
-153 113 0 
-154 -117 155 0 
-154 117 0 
-155 -121 156 0 
-155 121 0 
-156 -125 157 0 
-156 125 0 
-13 -14 0 
-157 158 0 
-158 -159 0 
-159 160 0 
-160 -42 -87 0 
-160 42 87 0 
-161 -162 166 0 
-161 162 171 0 
-162 101 0 
-162 163 0 
-163 99 0 
-163 164 0 
-164 165 0 
-164 95 0 
-165 98 0 
-166 -108 167 0 
-166 108 0 
-167 -150 168 0 
-167 150 0 
-168 -113 169 0 
-168 113 0 
-169 -117 170 0 
-169 117 0 
-170 -76 156 0 
-170 76 0 
-171 -172 175 0 
-171 172 180 0 
-172 101 0 
-172 173 0 
-173 99 0 
-173 174 0 
-174 133 0 
-174 165 0 
-175 -108 176 0 
-175 108 0 
-176 -150 177 0 
-176 150 0 
-15 -16 20 0 
-15 16 0 
-177 -113 178 0 
-177 113 0 
-178 -179 155 0 
-178 179 0 
-179 72 0 
-180 -181 184 0 
-180 181 198 0 
-181 101 0 
-181 182 0 
-182 183 0 
-182 94 0 
-183 100 0 
-184 -108 185 0 
-184 108 0 
-185 -150 186 0 
-185 150 0 
-186 -113 187 0 
-186 113 0 
-16 17 0 
-187 -117 188 0 
-187 117 0 
-188 -121 189 0 
-188 121 0 
-189 -125 190 0 
-189 125 197 0 
-190 -191 195 0 
-190 191 157 0 
-191 192 0 
-192 -193 0 
-193 -194 0 
-195 -196 157 0 
-195 196 0 
-196 82 0 
-1 2 0 
-17 -18 0 
-197 -191 195 0 
-197 191 0 
-198 -199 201 0 
-198 199 208 0 
-199 101 0 
-199 200 0 
-200 132 0 
-200 183 0 
-201 -202 203 0 
-201 202 0 
-202 57 0 
-203 -150 204 0 
-203 150 0 
-204 -113 205 0 
-204 113 0 
-205 -117 206 0 
-205 117 0 
-206 -121 207 0 
-206 121 0 
-18 -19 0 
-207 -81 157 0 
-207 81 0 
-208 -209 211 0 
-208 209 221 0 
-209 163 0 
-209 210 0 
-210 102 0 
-211 -56 212 0 
-211 56 0 
-212 -150 213 0 
-212 150 0 
-213 -214 218 0 
-213 214 153 0 
-214 215 0 
-215 -216 0 
-216 -217 0 
-218 -113 219 0 
-218 113 0 
-219 -71 220 0 
-219 71 0 
-220 -145 156 0 
-220 145 0 
-221 -222 166 0 
-221 222 224 0 
-222 101 0 
-222 223 0 
-223 164 0 
-223 183 0 
-224 -225 227 0 
-224 225 231 0 
-225 101 0 
-225 226 0 
-226 174 0 
-226 183 0 
-20 -21 25 0 
-20 21 0 
-227 -108 228 0 
-227 108 0 
-228 -150 229 0 
-228 150 0 
-229 -230 154 0 
-229 230 0 
-230 67 0 
-231 -232 184 0 
-231 232 233 0 
-232 210 0 
-232 93 0 
-233 -234 235 0 
-233 234 238 0 
-234 131 0 
-234 210 0 
-235 -236 237 0 
-235 236 0 
-236 52 0 
-21 -22 0 
-237 -108 203 0 
-237 108 0 
-238 -56 239 0 
-238 56 250 0 
-239 -108 240 0 
-239 108 249 0 
-240 -241 242 0 
-240 241 60 0 
-241 173 0 
-241 210 0 
-242 -61 243 0 
-242 61 247 0 
-243 -150 244 0 
-243 150 246 0 
-244 -214 245 0 
-244 214 153 0 
-245 -66 116 0 
-245 66 0 
-246 -214 245 0 
-246 214 0 
-22 -23 0 
-247 -150 248 0 
-247 150 0 
-248 -214 0 
-248 214 153 0 
-249 -241 0 
-249 241 60 0 
-250 -108 251 0 
-250 108 0 
-251 -241 242 0 
-251 241 0 
-252 -130 0 
-252 130 253 0 
-253 -162 0 
-253 162 254 0 
-254 -172 0 
-254 172 255 0 
-255 -181 0 
-255 181 256 0 
-256 -199 0 
-256 199 257 0 
-23 -24 0 
-257 -209 0 
-257 209 258 0 
-258 -222 0 
-258 222 259 0 
-259 -225 0 
-259 225 260 0 
-260 -232 0 
-260 232 233 0 
-261 -92 103 0 
-261 92 262 0 
-262 -104 263 0 
-262 104 273 0 
-263 -130 134 0 
-263 130 264 0 
-264 -162 166 0 
-264 162 265 0 
-265 -172 175 0 
-265 172 266 0 
-266 -181 184 0 
-266 181 267 0 
-267 -199 201 0 
-267 199 268 0 
-268 -209 211 0 
-268 209 269 0 
-269 -222 166 0 
-269 222 270 0 
-270 -225 227 0 
-270 225 271 0 
-271 -232 184 0 
-271 232 272 0 
-272 -234 235 0 
-272 234 0 
-273 -130 0 
-273 130 274 0 
-274 -162 0 
-274 162 275 0 
-275 -172 0 
-275 172 276 0 
-276 -181 0 
-276 181 277 0 
-25 -26 30 0 
-25 26 0 
-277 -199 0 
-277 199 278 0 
-278 -209 0 
-278 209 279 0 
-279 -222 0 
-279 222 280 0 
-280 -225 0 
-280 225 281 0 
-281 -232 0 
-281 232 272 0 
-282 -6 283 0 
-282 6 477 0 
-283 -284 295 0 
-283 284 338 0 
-284 285 0 
-284 293 0 
-285 286 0 
-285 291 0 
-286 287 0 
-286 289 0 
-26 -27 0 
-287 -288 0 
-289 -290 0 
-291 -292 0 
-293 -294 0 
-295 -296 302 0 
-295 296 0 
-296 -297 0 
-2 -3 0 
-27 -28 0 
-297 298 0 
-298 -299 -7 0 
-298 299 7 0 
-299 -300 0 
-300 -301 0 
-302 -303 309 0 
-302 303 0 
-303 -304 0 
-304 305 0 
-305 -306 -12 0 
-305 306 12 0 
-306 -307 0 
-28 -29 0 
-307 -308 0 
-309 -16 310 0 
-309 16 0 
-310 -311 317 0 
-310 311 0 
-311 -312 0 
-312 313 0 
-313 -314 -22 0 
-313 314 22 0 
-314 -315 0 
-315 -316 0 
-317 -318 324 0 
-317 318 0 
-318 -319 0 
-319 320 0 
-320 -321 -27 0 
-320 321 27 0 
-321 -322 0 
-322 -323 0 
-324 -325 331 0 
-324 325 0 
-325 -326 0 
-326 327 0 
-30 -31 35 0 
-30 31 0 
-327 -328 -32 0 
-327 328 32 0 
-328 -329 0 
-329 -330 0 
-331 -332 40 0 
-331 332 0 
-332 -333 0 
-333 334 0 
-334 -335 -37 0 
-334 335 37 0 
-335 -336 0 
-336 -337 0 
-31 -32 0 
-338 -296 339 0 
-338 296 468 0 
-339 -340 344 0 
-339 340 377 0 
-340 293 0 
-340 341 0 
-341 291 0 
-341 342 0 
-342 289 0 
-342 343 0 
-343 288 0 
-344 -303 345 0 
-344 303 0 
-345 -346 350 0 
-345 346 359 0 
-346 347 0 
-32 -33 0 
-347 -348 0 
-348 -349 0 
-350 -351 352 0 
-350 351 0 
-351 -17 0 
-352 -311 353 0 
-352 311 0 
-353 -318 354 0 
-353 318 0 
-354 -355 356 0 
-354 355 0 
-355 32 0 
-356 -332 357 0 
-356 332 0 
-33 -34 0 
-357 -358 45 0 
-357 358 0 
-358 42 0 
-359 -360 366 0 
-359 360 0 
-360 -361 0 
-361 362 0 
-362 -363 -17 0 
-362 363 17 0 
-363 -364 0 
-364 -365 0 
-366 -311 367 0 
-366 311 0 
-367 -318 368 0 
-367 318 0 
-368 -325 369 0 
-368 325 0 
-369 -332 370 0 
-369 332 0 
-370 -371 45 0 
-370 371 0 
-371 -372 0 
-372 373 0 
-373 -374 -42 0 
-373 374 42 0 
-374 -375 0 
-375 -376 0 
-35 -36 40 0 
-35 36 0 
-377 -378 382 0 
-377 378 387 0 
-378 293 0 
-378 379 0 
-379 291 0 
-379 380 0 
-380 287 0 
-380 381 0 
-381 290 0 
-382 -303 383 0 
-382 303 0 
-383 -360 384 0 
-383 360 0 
-384 -311 385 0 
-384 311 0 
-385 -318 386 0 
-385 318 0 
-386 -31 369 0 
-386 31 0 
-36 -37 0 
-387 -388 391 0 
-387 388 396 0 
-388 293 0 
-388 389 0 
-389 291 0 
-389 390 0 
-390 343 0 
-390 381 0 
-391 -303 392 0 
-391 303 0 
-392 -360 393 0 
-392 360 0 
-393 -311 394 0 
-393 311 0 
-394 -395 368 0 
-394 395 0 
-395 27 0 
-396 -397 400 0 
-396 397 414 0 
-3 -4 0 
-37 -38 0 
-397 293 0 
-397 398 0 
-398 286 0 
-398 399 0 
-399 292 0 
-400 -303 401 0 
-400 303 0 
-401 -360 402 0 
-401 360 0 
-402 -311 403 0 
-402 311 0 
-403 -318 404 0 
-403 318 0 
-404 -325 405 0 
-404 325 0 
-405 -332 406 0 
-405 332 413 0 
-406 -407 411 0 
-406 407 370 0 
-38 -39 0 
-407 408 0 
-408 -409 0 
-409 -410 0 
-411 -412 370 0 
-411 412 0 
-412 37 0 
-413 -407 411 0 
-413 407 0 
-414 -415 417 0 
-414 415 424 0 
-415 293 0 
-415 416 0 
-416 342 0 
-416 399 0 
-417 -418 419 0 
-417 418 0 
-418 12 0 
-419 -360 420 0 
-419 360 0 
-420 -311 421 0 
-420 311 0 
-421 -318 422 0 
-421 318 0 
-422 -325 423 0 
-422 325 0 
-423 -36 370 0 
-423 36 0 
-424 -425 427 0 
-424 425 437 0 
-425 379 0 
-425 426 0 
-426 294 0 
-40 -41 45 0 
-40 41 0 
-427 -11 428 0 
-427 11 0 
-428 -360 429 0 
-428 360 0 
-429 -430 434 0 
-429 430 366 0 
-430 431 0 
-431 -432 0 
-432 -433 0 
-434 -311 435 0 
-434 311 0 
-435 -26 436 0 
-435 26 0 
-436 -355 369 0 
-436 355 0 
-41 -42 0 
-437 -438 382 0 
-437 438 440 0 
-438 293 0 
-438 439 0 
-439 380 0 
-439 399 0 
-440 -441 443 0 
-440 441 447 0 
-441 293 0 
-441 442 0 
-442 390 0 
-442 399 0 
-443 -303 444 0 
-443 303 0 
-444 -360 445 0 
-444 360 0 
-445 -446 367 0 
-445 446 0 
-446 22 0 
-42 -43 0 
-447 -448 400 0 
-447 448 449 0 
-448 285 0 
-448 426 0 
-449 -450 451 0 
-449 450 454 0 
-450 341 0 
-450 426 0 
-451 -452 453 0 
-451 452 0 
-452 7 0 
-453 -303 419 0 
-453 303 0 
-454 -11 455 0 
-454 11 466 0 
-455 -303 456 0 
-455 303 465 0 
-456 -457 458 0 
-456 457 15 0 
-43 -44 0 
-457 389 0 
-457 426 0 
-458 -16 459 0 
-458 16 463 0 
-459 -360 460 0 
-459 360 462 0 
-460 -430 461 0 
-460 430 366 0 
-461 -21 317 0 
-461 21 0 
-462 -430 461 0 
-462 430 0 
-463 -360 464 0 
-463 360 0 
-464 -430 0 
-464 430 366 0 
-465 -457 0 
-465 457 15 0 
-466 -303 467 0 
-466 303 0 
-467 -457 458 0 
-467 457 0 
-468 -340 0 
-468 340 469 0 
-469 -378 0 
-469 378 470 0 
-470 -388 0 
-470 388 471 0 
-471 -397 0 
-471 397 472 0 
-472 -415 0 
-472 415 473 0 
-473 -425 0 
-473 425 474 0 
-474 -438 0 
-474 438 475 0 
-475 -441 0 
-475 441 476 0 
-476 -448 0 
-476 448 449 0 
-45 -46 50 0 
-45 46 90 0 
-477 -284 295 0 
-477 284 478 0 
-478 -296 479 0 
-478 296 489 0 
-479 -340 344 0 
-479 340 480 0 
-480 -378 382 0 
-480 378 481 0 
-481 -388 391 0 
-481 388 482 0 
-482 -397 400 0 
-482 397 483 0 
-483 -415 417 0 
-483 415 484 0 
-484 -425 427 0 
-484 425 485 0 
-485 -438 382 0 
-485 438 486 0 
-486 -441 443 0 
-486 441 487 0 
-46 47 0 
-487 -448 400 0 
-487 448 488 0 
-488 -450 451 0 
-488 450 0 
-489 -340 0 
-489 340 490 0 
-490 -378 0 
-490 378 491 0 
-491 -388 0 
-491 388 492 0 
-492 -397 0 
-492 397 493 0 
-493 -415 0 
-493 415 494 0 
-494 -425 0 
-494 425 495 0 
-495 -438 0 
-495 438 496 0 
-496 -441 0 
-496 441 497 0 
-47 -48 0 
-497 -448 0 
-497 448 488 0 
-48 -49 0 
-50 -51 55 0 
-50 51 0 
-51 -52 0 
-52 -53 0 
-53 -54 0 
-55 -56 60 0 
-55 56 0 
-56 -57 0 
-57 -58 0 
-58 -59 0 
-60 -61 65 0 
-60 61 0 
-61 62 0 
-62 -63 0 
-63 -64 0 
-65 -66 70 0 
-65 66 0 
-66 -67 0 
-5 -6 10 0 
-5 6 0 
-67 -68 0 
-68 -69 0 
-70 -71 75 0 
-70 71 0 
-71 -72 0 
-72 -73 0 
-73 -74 0 
-75 -76 80 0 
-75 76 0 
-76 -77 0 
-6 -7 0 
-77 -78 0 
-78 -79 0 
-80 -81 85 0 
-80 81 0 
-81 -82 0 
-82 -83 0 
-83 -84 0 
-85 86 0 
-86 -87 0 
-7 -8 0 
-87 -88 0 
-88 -89 0 
-90 -51 91 0 
-90 51 261 0 
-91 -92 103 0 
-91 92 128 0 
-92 101 0 
-92 93 0 
-93 99 0 
-93 94 0 
-94 97 0 
-94 95 0 
-95 -96 0 
8 9 0 
97 98 0 
99 100 0 
101 102 0 
103 -104 -107 0 
104 105 0 
105 -106 0 
106 -52 7 0 
106 -7 52 0 
107 -108 -111 0 
108 109 0 
109 -110 0 
110 -12 57 0 
110 -57 12 0 
111 -61 -112 0 
112 -113 -116 0 
113 114 0 
114 -115 0 
115 -22 67 0 
115 -67 22 0 
116 -117 -120 0 
117 118 0 
118 -119 0 
119 -27 72 0 
119 -72 27 0 
120 -121 -124 0 
121 122 0 
122 -123 0 
123 -32 77 0 
123 -77 32 0 
124 -125 -85 0 
125 126 0 
126 -127 0 
10 -11 -15 0 
127 -37 82 0 
127 -82 37 0 
128 -104 -129 0 
128 -129 -252 0 
128 104 -252 0 
129 -130 -134 0 
129 -134 -161 0 
129 130 -161 0 
130 -131 -101 0 
131 -132 -99 0 
132 -133 -97 0 
133 -96 0 
134 -108 -135 0 
135 -136 -140 0 
135 -140 -149 0 
135 136 -149 0 
136 -137 0 
11 12 0 
137 138 0 
138 139 0 
140 -141 -142 0 
141 62 0 
142 -113 -143 0 
143 -117 -144 0 
144 -145 -146 0 
145 -77 0 
146 -125 -147 0 
12 13 0 
147 -148 0 
148 -87 0 
149 -150 -153 0 
150 151 0 
151 -152 0 
152 -17 62 0 
152 -62 17 0 
153 -113 -154 0 
154 -117 -155 0 
155 -121 -156 0 
156 -125 -157 0 
13 14 0 
157 -158 0 
158 159 0 
159 -160 0 
160 -42 87 0 
160 -87 42 0 
161 -162 -166 0 
161 -166 -171 0 
161 162 -171 0 
162 -163 -101 0 
163 -164 -99 0 
164 -95 -165 0 
165 -98 0 
166 -108 -167 0 
167 -150 -168 0 
168 -113 -169 0 
169 -117 -170 0 
170 -76 -156 0 
171 -172 -175 0 
171 -175 -180 0 
171 172 -180 0 
172 -173 -101 0 
173 -174 -99 0 
174 -133 -165 0 
175 -108 -176 0 
176 -150 -177 0 
15 -16 -20 0 
177 -113 -178 0 
178 -179 -155 0 
179 -72 0 
180 -181 -184 0 
180 -184 -198 0 
180 181 -198 0 
181 -182 -101 0 
182 -94 -183 0 
183 -100 0 
184 -108 -185 0 
185 -150 -186 0 
186 -113 -187 0 
16 -17 0 
187 -117 -188 0 
188 -121 -189 0 
189 -125 -190 0 
189 -190 -197 0 
189 125 -197 0 
190 -191 -195 0 
190 -195 -157 0 
190 191 -157 0 
191 -192 0 
192 193 0 
193 194 0 
195 -196 -157 0 
196 -82 0 
1 -2 0 
17 18 0 
197 -191 -195 0 
198 -199 -201 0 
198 -201 -208 0 
198 199 -208 0 
199 -200 -101 0 
200 -132 -183 0 
201 -202 -203 0 
202 -57 0 
203 -150 -204 0 
204 -113 -205 0 
205 -117 -206 0 
206 -121 -207 0 
18 19 0 
207 -81 -157 0 
208 -209 -211 0 
208 -211 -221 0 
208 209 -221 0 
209 -163 -210 0 
210 -102 0 
211 -56 -212 0 
212 -150 -213 0 
213 -214 -218 0 
213 -218 -153 0 
213 214 -153 0 
214 -215 0 
215 216 0 
216 217 0 
218 -113 -219 0 
219 -71 -220 0 
220 -145 -156 0 
221 -166 -224 0 
221 -222 -166 0 
221 222 -224 0 
222 -223 -101 0 
223 -164 -183 0 
224 -225 -227 0 
224 -227 -231 0 
224 225 -231 0 
225 -226 -101 0 
226 -174 -183 0 
20 -21 -25 0 
227 -108 -228 0 
228 -150 -229 0 
229 -230 -154 0 
230 -67 0 
231 -184 -233 0 
231 -232 -184 0 
231 232 -233 0 
232 -93 -210 0 
233 -234 -235 0 
233 -235 -238 0 
233 234 -238 0 
234 -131 -210 0 
235 -236 -237 0 
236 -52 0 
21 22 0 
237 -108 -203 0 
238 -239 -250 0 
238 -56 -239 0 
238 56 -250 0 
239 -108 -240 0 
239 -240 -249 0 
239 108 -249 0 
240 -241 -242 0 
240 -242 -60 0 
240 241 -60 0 
241 -173 -210 0 
242 -243 -247 0 
242 -61 -243 0 
242 61 -247 0 
243 -150 -244 0 
243 -244 -246 0 
243 150 -246 0 
244 -214 -245 0 
244 -245 -153 0 
244 214 -153 0 
245 -66 -116 0 
246 -214 -245 0 
22 23 0 
247 -150 -248 0 
248 214 -153 0 
249 241 -60 0 
250 -108 -251 0 
251 -241 -242 0 
252 130 -253 0 
253 162 -254 0 
254 172 -255 0 
255 181 -256 0 
256 199 -257 0 
23 24 0 
257 209 -258 0 
258 222 -259 0 
259 225 -260 0 
260 232 -233 0 
261 -103 -262 0 
261 -92 -103 0 
261 92 -262 0 
262 -104 -263 0 
262 -263 -273 0 
262 104 -273 0 
263 -130 -134 0 
263 -134 -264 0 
263 130 -264 0 
264 -162 -166 0 
264 -166 -265 0 
264 162 -265 0 
265 -172 -175 0 
265 -175 -266 0 
265 172 -266 0 
266 -181 -184 0 
266 -184 -267 0 
266 181 -267 0 
267 -199 -201 0 
267 -201 -268 0 
267 199 -268 0 
268 -209 -211 0 
268 -211 -269 0 
268 209 -269 0 
269 -166 -270 0 
269 -222 -166 0 
269 222 -270 0 
270 -225 -227 0 
270 -227 -271 0 
270 225 -271 0 
271 -184 -272 0 
271 -232 -184 0 
271 232 -272 0 
272 -234 -235 0 
273 130 -274 0 
274 162 -275 0 
275 172 -276 0 
276 181 -277 0 
25 -26 -30 0 
277 199 -278 0 
278 209 -279 0 
279 222 -280 0 
280 225 -281 0 
281 232 -272 0 
282 -283 -477 0 
282 -6 -283 0 
282 6 -477 0 
283 -284 -295 0 
283 -295 -338 0 
283 284 -338 0 
284 -285 -293 0 
285 -286 -291 0 
286 -287 -289 0 
26 27 0 
287 288 0 
289 290 0 
291 292 0 
293 294 0 
295 -296 -302 0 
296 297 0 
2 3 0 
27 28 0 
297 -298 0 
298 -299 7 0 
298 -7 299 0 
299 300 0 
300 301 0 
302 -303 -309 0 
303 304 0 
304 -305 0 
305 -12 306 0 
305 -306 12 0 
306 307 0 
28 29 0 
307 308 0 
309 -16 -310 0 
310 -311 -317 0 
311 312 0 
312 -313 0 
313 -22 314 0 
313 -314 22 0 
314 315 0 
315 316 0 
317 -318 -324 0 
318 319 0 
319 -320 0 
320 -27 321 0 
320 -321 27 0 
321 322 0 
322 323 0 
324 -325 -331 0 
325 326 0 
326 -327 0 
30 -31 -35 0 
327 -328 32 0 
327 -32 328 0 
328 329 0 
329 330 0 
331 -332 -40 0 
332 333 0 
333 -334 0 
334 -335 37 0 
334 -37 335 0 
335 336 0 
336 337 0 
31 32 0 
338 -296 -339 0 
338 -339 -468 0 
338 296 -468 0 
339 -340 -344 0 
339 -344 -377 0 
339 340 -377 0 
340 -341 -293 0 
341 -342 -291 0 
342 -343 -289 0 
343 -288 0 
344 -303 -345 0 
345 -346 -350 0 
345 -350 -359 0 
345 346 -359 0 
346 -347 0 
32 33 0 
347 348 0 
348 349 0 
350 -351 -352 0 
351 17 0 
352 -311 -353 0 
353 -318 -354 0 
354 -355 -356 0 
355 -32 0 
356 -332 -357 0 
33 34 0 
357 -358 -45 0 
358 -42 0 
359 -360 -366 0 
360 361 0 
361 -362 0 
362 -17 363 0 
362 -363 17 0 
363 364 0 
364 365 0 
366 -311 -367 0 
367 -318 -368 0 
368 -325 -369 0 
369 -332 -370 0 
370 -371 -45 0 
371 372 0 
372 -373 0 
373 -374 42 0 
373 -42 374 0 
374 375 0 
375 376 0 
35 -36 -40 0 
377 -378 -382 0 
377 -382 -387 0 
377 378 -387 0 
378 -379 -293 0 
379 -380 -291 0 
380 -287 -381 0 
381 -290 0 
382 -303 -383 0 
383 -360 -384 0 
384 -311 -385 0 
385 -318 -386 0 
386 -31 -369 0 
36 37 0 
387 -388 -391 0 
387 -391 -396 0 
387 388 -396 0 
388 -389 -293 0 
389 -390 -291 0 
390 -343 -381 0 
391 -303 -392 0 
392 -360 -393 0 
393 -311 -394 0 
394 -395 -368 0 
395 -27 0 
396 -397 -400 0 
396 -400 -414 0 
396 397 -414 0 
3 4 0 
37 38 0 
397 -398 -293 0 
398 -286 -399 0 
399 -292 0 
400 -303 -401 0 
401 -360 -402 0 
402 -311 -403 0 
403 -318 -404 0 
404 -325 -405 0 
405 -332 -406 0 
405 -406 -413 0 
405 332 -413 0 
406 -407 -411 0 
406 -411 -370 0 
406 407 -370 0 
38 39 0 
407 -408 0 
408 409 0 
409 410 0 
411 -412 -370 0 
412 -37 0 
413 -407 -411 0 
414 -415 -417 0 
414 -417 -424 0 
414 415 -424 0 
415 -416 -293 0 
416 -342 -399 0 
417 -418 -419 0 
418 -12 0 
419 -360 -420 0 
420 -311 -421 0 
421 -318 -422 0 
422 -325 -423 0 
423 -36 -370 0 
424 -425 -427 0 
424 -427 -437 0 
424 425 -437 0 
425 -379 -426 0 
426 -294 0 
40 -41 -45 0 
427 -11 -428 0 
428 -360 -429 0 
429 -430 -434 0 
429 -434 -366 0 
429 430 -366 0 
430 -431 0 
431 432 0 
432 433 0 
434 -311 -435 0 
435 -26 -436 0 
436 -355 -369 0 
41 42 0 
437 -382 -440 0 
437 -438 -382 0 
437 438 -440 0 
438 -439 -293 0 
439 -380 -399 0 
440 -441 -443 0 
440 -443 -447 0 
440 441 -447 0 
441 -442 -293 0 
442 -390 -399 0 
443 -303 -444 0 
444 -360 -445 0 
445 -446 -367 0 
446 -22 0 
42 43 0 
447 -400 -449 0 
447 -448 -400 0 
447 448 -449 0 
448 -285 -426 0 
449 -450 -451 0 
449 -451 -454 0 
449 450 -454 0 
450 -341 -426 0 
451 -452 -453 0 
452 -7 0 
453 -303 -419 0 
454 -11 -455 0 
454 -455 -466 0 
454 11 -466 0 
455 -303 -456 0 
455 -456 -465 0 
455 303 -465 0 
456 -457 -458 0 
456 -458 -15 0 
456 457 -15 0 
43 44 0 
457 -389 -426 0 
458 -16 -459 0 
458 -459 -463 0 
458 16 -463 0 
459 -360 -460 0 
459 -460 -462 0 
459 360 -462 0 
460 -430 -461 0 
460 -461 -366 0 
460 430 -366 0 
461 -21 -317 0 
462 -430 -461 0 
463 -360 -464 0 
464 430 -366 0 
465 457 -15 0 
466 -303 -467 0 
467 -457 -458 0 
468 340 -469 0 
469 378 -470 0 
470 388 -471 0 
471 397 -472 0 
472 415 -473 0 
473 425 -474 0 
474 438 -475 0 
475 441 -476 0 
476 448 -449 0 
45 -46 -50 0 
45 -50 -90 0 
45 46 -90 0 
477 -284 -295 0 
477 -295 -478 0 
477 284 -478 0 
478 -296 -479 0 
478 -479 -489 0 
478 296 -489 0 
479 -340 -344 0 
479 -344 -480 0 
479 340 -480 0 
480 -378 -382 0 
480 -382 -481 0 
480 378 -481 0 
481 -388 -391 0 
481 -391 -482 0 
481 388 -482 0 
482 -397 -400 0 
482 -400 -483 0 
482 397 -483 0 
483 -415 -417 0 
483 -417 -484 0 
483 415 -484 0 
484 -425 -427 0 
484 -427 -485 0 
484 425 -485 0 
485 -382 -486 0 
485 -438 -382 0 
485 438 -486 0 
486 -441 -443 0 
486 -443 -487 0 
486 441 -487 0 
46 -47 0 
487 -400 -488 0 
487 -448 -400 0 
487 448 -488 0 
488 -450 -451 0 
489 340 -490 0 
490 378 -491 0 
491 388 -492 0 
492 397 -493 0 
493 415 -494 0 
494 425 -495 0 
495 438 -496 0 
496 441 -497 0 
47 48 0 
497 448 -488 0 
48 49 0 
50 -51 -55 0 
51 52 0 
52 53 0 
53 54 0 
55 -56 -60 0 
56 57 0 
57 58 0 
58 59 0 
60 -61 -65 0 
61 -62 0 
62 63 0 
63 64 0 
65 -66 -70 0 
66 67 0 
5 -6 -10 0 
67 68 0 
68 69 0 
70 -71 -75 0 
71 72 0 
72 73 0 
73 74 0 
75 -76 -80 0 
76 77 0 
6 7 0 
77 78 0 
78 79 0 
80 -81 -85 0 
81 82 0 
82 83 0 
83 84 0 
85 -86 0 
86 87 0 
7 8 0 
87 88 0 
88 89 0 
90 -51 -91 0 
90 -91 -261 0 
90 51 -261 0 
91 -103 -128 0 
91 -92 -103 0 
91 92 -128 0 
92 -93 -101 0 
93 -94 -99 0 
94 -95 -97 0 
95 96 0 
